TCS_Benchmarks/redos_fix/regexlib2_output_distinct_2869_2868_32_0.txt
(i(.*))(up(\d{3}))
(i(.*)).*